Route #1: 26 17 51 6
Route #2: 33 2
Route #3: 30 48 47 15
Route #4: 36 20 37 5
Route #5: 21 28 22
Route #6: 1 43 42 41 23
Route #7: 38 11
Route #8: 10 31 25
Route #9: 18 50 32
Route #10: 9 39 12
Route #11: 40 44 3
Route #12: 16 49 24
Route #13: 14 53 7
Route #14: 8 35 19 54 13
Route #15: 45 29 27 52
Route #16: 46 34
Route #17: 4
Cost 986